28
2 7 49 
2 50 3 
3 41 24 2 
3 33 30 57 
3 8 5 25 
2 52 4 
3 58 12 27 
2 9 32 
1 36 
2 20 45 
3 54 22 56 
1 19 
2 13 50 
3 1 39 35 
2 37 13 
2 23 10 
3 51 6 43 
1 59 
2 42 34 
1 48 
3 11 31 38 
1 16 
3 53 17 47 
1 28 
3 18 60 21 
2 26 47 
1 46 
3 18 60 57 
